NAME Final
* Max problem is converted into Min one
ROWS
 N  OBJ
 L  C1      
 L  C2      
 L  C3      
 G  C4      
 G  C5      
 G  C6      
COLUMNS
    x[0]      OBJ       -3
    x[0]      C1        0.1
    x[0]      C2        0.4
    x[0]      C3        0.5
    x[0]      C4        -0.3
    x[0]      C5        1
    x[1]      OBJ       -2.5
    x[1]      C1        0.2
    x[1]      C2        0.3
    x[1]      C3        0.5
    x[1]      C4        0.7
    x[1]      C6        1
RHS
    RHS1      C1        5420
    RHS1      C2        14790
    RHS1      C3        19990
BOUNDS
ENDATA
